\ SCIP STATISTICS
\   Problem name     : RECIPELP
\   Variables        : 180 (0 binary, 0 integer, 0 implicit integer, 180 continuous)
\   Constraints      : 91
\   Obj. scale       : 1
\   Obj. offset      : 0
Minimize 
Obj: -200000 JAL1IOBE -200000 JCC1IOBE -200000 JCH1IOBE -200000 JCL1IOBE -200000 JHH1IOBE -200000 JHL1IOBE -200000 JHX1IOBE -200000 JLV1IOBE 
-200000 JP81IOBE +200 JAL1MXBE +200 JCC1MXBE +200 JCH1MXBE +200 JCL1MXBE +200 JHH1MXBE +200 JHL1MXBE 
+100 JHX1MXBE +200 JLV1MXBE +200 JN41MXBE +200 JP81MXBE -200 JAL1TGBE -200 JCC1TGBE 
-200 JCH1TGBE -200 JCL1TGBE -200 JHH1TGBE -200 JHL1TGBE -100 JHX1TGBE -200 JLV1TGBE 
-200 JN41TGBE -200 JP81TGBE +200 JAL2MXBE +200 JCC2MXBE +200 JCH2MXBE +200 JCL2MXBE 
+200 JHH2MXBE +200 JHL2MXBE +100 JHX2MXBE +200 JLV2MXBE +200 JN42MXBE +200 JP82MXBE 
-200 JAL2TGBE -200 JCC2TGBE -200 JCH2TGBE -200 JCL2TGBE -200 JHH2TGBE -200 JHL2TGBE 
-100 JHX2TGBE -200 JLV2TGBE -200 JN42TGBE -200 JP82TGBE +200 JAL3MXBE +200 JCC3MXBE 
+200 JCH3MXBE +200 JCL3MXBE +200 JHH3MXBE +200 JHL3MXBE +100 JHX3MXBE +200 JLV3MXBE 
+200 JN43MXBE +200 JP83MXBE -200 JAL3TGBE -200 JCC3TGBE -200 JCH3TGBE -200 JCL3TGBE 
-200 JHH3TGBE -200 JHL3TGBE -100 JHX3TGBE -200 JLV3TGBE -200 JN43TGBE -200 JP83TGBE 
+10000 JAL4MXBE +10000 JCC4MXBE +10000 JCH4MXBE +10000 JCL4MXBE +10000 JHH4MXBE +10000 JHL4MXBE +10000 JHX4MXBE 
+10000 JLV4MXBE +10000 JN44MXBE +10000 JP84MXBE -10000 JAL4TGBE -10000 JCC4TGBE -10000 JCH4TGBE -10000 JCL4TGBE 
-10000 JHH4TGBE -10000 JHL4TGBE -10000 JHX4TGBE -10000 JLV4TGBE -10000 JN44TGBE -10000 JP84TGBE 
Subject to 
BAL...BE: -100000 BAL.3EBE -100000 BAL.3PBE -100000 BAL.3RBE +100000 EAL...BE = +0 
BCC...BE: -100000 BCC.3EBE -100000 BCC.3PBE -100000 BCC.3RBE +100000 ECC...BE = +0 
BCH...BE: -100000 BCH.3EBE -100000 BCH.3PBE -100000 BCH.3RBE +100000 ECH...BE = +0 
BCL...BE: -100000 BCL.3EBE -100000 BCL.3PBE -100000 BCL.3RBE +100000 ECL...BE = +0 
BHH...BE: -100000 BHH.3EBE -100000 BHH.3PBE -100000 BHH.3RBE +100000 EHH...BE = +0 
BHL...BE: -100000 BHL.3EBE -100000 BHL.3PBE -100000 BHL.3RBE +100000 EHL...BE = +0 
BHX...BE: -100000 BHX.3EBE -100000 BHX.3PBE -100000 BHX.3RBE +100000 EHX...BE = +0 
BLV...BE: -100000 BLV.3EBE -100000 BLV.3PBE -100000 BLV.3RBE +100000 ELV...BE = +0 
BN4...BE: -100000 BN4.3EBE -100000 BN4.3PBE -100000 BN4.3RBE +100000 EN4...BE = +0 
BP8...BE: -100000 BP8.3EBE -100000 BP8.3PBE -100000 BP8.3RBE +100000 EP8...BE = +0 
B3E...BE: -10000000 D3E...BE -1200000 M3..3TBE +10000000 QVO13EBE +10000000 QVO23EBE +10000000 QVO33EBE +10000000 QVO43EBE = +0 
B3P...BE: -10000000 D3P...BE -3800000 M3..3TBE +10000000 QVO13PBE +10000000 QVO23PBE +10000000 QVO33PBE +10000000 QVO43PBE = +0 
B3R...BE: -1000000 D3R...BE -500000 M3..3TBE +1000000 QVO13RBE +1000000 QVO23RBE +1000000 QVO33RBE +1000000 QVO43RBE = +0 
B3T...BE: -100000 D3T...BE +100000 M3..3TBE = +0 
B3E.VOBE: +100000 BAL.3EBE +100000 BCC.3EBE +100000 BCH.3EBE +100000 BCL.3EBE +100000 BHH.3EBE +100000 BHL.3EBE +100000 BHX.3EBE +100000 BLV.3EBE 
+100000 BN4.3EBE +100000 BP8.3EBE -100000 QVO13EBE -100000 QVO23EBE -100000 QVO33EBE -100000 QVO43EBE = +0 
B3P.VOBE: +100000 BAL.3PBE +100000 BCC.3PBE +100000 BCH.3PBE +100000 BCL.3PBE +100000 BHH.3PBE +100000 BHL.3PBE +100000 BHX.3PBE +100000 BLV.3PBE 
+100000 BN4.3PBE +100000 BP8.3PBE -100000 QVO13PBE -100000 QVO23PBE -100000 QVO33PBE -100000 QVO43PBE = +0 
B3R.VOBE: +100000 BAL.3RBE +100000 BCC.3RBE +100000 BCH.3RBE +100000 BCL.3RBE +100000 BHH.3RBE +100000 BHL.3RBE +100000 BHX.3RBE +100000 BLV.3RBE 
+100000 BN4.3RBE +100000 BP8.3RBE -100000 QVO13RBE -100000 QVO23RBE -100000 QVO33RBE -100000 QVO43RBE = +0 
NOM.3EBE: -89000000 QVO13EBE +500000 WMO13EBE +500000 WRO13EBE -89000000 QVO23EBE +500000 WMO23EBE +500000 WRO23EBE -89000000 QVO33EB 
+500000 WMO33EBE +500000 WRO33EBE -89000000 QVO43EBE +500000 WMO43EBE +500000 WRO43EBE >= +0 
NRO.3EBE: -9300000 QVO13EBE +100000 WRO13EBE -9300000 QVO23EBE +100000 WRO23EBE -9300000 QVO33EBE +100000 WRO33EBE -9300000 QVO43EBE +100000 WRO43EBE 
>= +0 
N13.3EBE: +9000000 BAL.3EBE +116800000 BCC.3EBE -14800000 BCH.3EBE +2000000 BCL.3EBE -21900000 BHH.3EBE +37000000 BHL.3EBE -21900000 BHX.3EBE 
+61000000 BLV.3EBE +145000000 BN4.3EBE +3600000 BP8.3EBE -10000000 QVO13EBE -10000000 QVO23EBE -10000000 QVO33EBE -10000000 QVO43EBE >= +0 
N14.3EBE: +1200000 BAL.3EBE +11400000 BCC.3EBE -1200000 BCH.3EBE +900000 BCL.3EBE -1800000 BHH.3EBE +4900000 BHL.3EBE -1800000 BHX.3EBE 
+6800000 BLV.3EBE +14500000 BN4.3EBE +400000 BP8.3EBE -1000000 QVO13EBE -1000000 QVO23EBE -1000000 QVO33EBE -1000000 QVO43EBE >= +0 
N24.3EBE: +80000000 BAL.3EBE +100000000 BCC.3EBE +2400000 BCH.3EBE +95000000 BCL.3EBE +4000000 BHH.3EBE +98000000 BHL.3EBE +4000000 BHX.3EBE 
+95000000 BLV.3EBE +100000000 BN4.3EBE +28500000 BP8.3EBE -50000000 QVO13EBE -50000000 QVO23EBE -50000000 QVO33EBE -50000000 QVO43EBE >= +0 
N36.3EBE: +99000000 BAL.3EBE +100000000 BCC.3EBE +90000000 BCH.3EBE +100000000 BCL.3EBE +96500000 BHH.3EBE +100000000 BHL.3EBE +96500000 BHX.3EBE 
+100000000 BLV.3EBE +100000000 BN4.3EBE +97000000 BP8.3EBE -90000000 QVO13EBE -90000000 QVO23EBE -90000000 QVO33EBE -90000000 QVO43EBE >= +0 
NOM.3PBE: -85000000 QVO13PBE +500000 WMO13PBE +500000 WRO13PBE -85000000 QVO23PBE +500000 WMO23PBE +500000 WRO23PBE -85000000 QVO33PBE 
+500000 WMO33PBE +500000 WRO33PBE -85000000 QVO43PBE +500000 WMO43PBE +500000 WRO43PBE >= +0 
NRO.3PBE: -8900000 QVO13PBE +100000 WRO13PBE -8900000 QVO23PBE +100000 WRO23PBE -8900000 QVO33PBE +100000 WRO33PBE -8900000 QVO43PBE +100000 WRO43PBE 
>= +0 
N13.3PBE: +900000 BAL.3PBE +11680000 BCC.3PBE -1480000 BCH.3PBE +200000 BCL.3PBE -2190000 BHH.3PBE +3700000 BHL.3PBE -2190000 BHX.3PBE 
+6100000 BLV.3PBE +14500000 BN4.3PBE +360000 BP8.3PBE -1000000 QVO13PBE -1000000 QVO23PBE -1000000 QVO33PBE -1000000 QVO43PBE >= +0 
N14.3PBE: +1200000 BAL.3PBE +11400000 BCC.3PBE -1200000 BCH.3PBE +900000 BCL.3PBE -1800000 BHH.3PBE +4900000 BHL.3PBE -1800000 BHX.3PBE 
+6800000 BLV.3PBE +14500000 BN4.3PBE +400000 BP8.3PBE -1000000 QVO13PBE -1000000 QVO23PBE -1000000 QVO33PBE -1000000 QVO43PBE >= +0 
N24.3PBE: +8000000 BAL.3PBE +10000000 BCC.3PBE +240000 BCH.3PBE +9500000 BCL.3PBE +400000 BHH.3PBE +9800000 BHL.3PBE +400000 BHX.3PBE 
+9500000 BLV.3PBE +10000000 BN4.3PBE +2850000 BP8.3PBE -5000000 QVO13PBE -5000000 QVO23PBE -5000000 QVO33PBE -5000000 QVO43PBE >= +0 
N36.3PBE: +9900000 BAL.3PBE +10000000 BCC.3PBE +9000000 BCH.3PBE +10000000 BCL.3PBE +9650000 BHH.3PBE +10000000 BHL.3PBE +9650000 BHX.3PBE 
+10000000 BLV.3PBE +10000000 BN4.3PBE +9700000 BP8.3PBE -9000000 QVO13PBE -9000000 QVO23PBE -9000000 QVO33PBE -9000000 QVO43PBE >= +0 
NOM.3RBE: -8800000 QVO13RBE +50000 WMO13RBE +50000 WRO13RBE -8800000 QVO23RBE +50000 WMO23RBE +50000 WRO23RBE -8800000 QVO33RBE 
+50000 WMO33RBE +50000 WRO33RBE -8800000 QVO43RBE +50000 WMO43RBE +50000 WRO43RBE >= +0 
NRO.3RBE: -9100000 QVO13RBE +100000 WRO13RBE -9100000 QVO23RBE +100000 WRO23RBE -9100000 QVO33RBE +100000 WRO33RBE -9100000 QVO43RBE +100000 WRO43RBE 
>= +0 



N13.3RBE: +900000 BAL.3RBE +11680000 BCC.3RBE -1480000 BCH.3RBE +200000 BCL.3RBE -2190000 BHH.3RBE +3700000 BHL.3RBE -2190000 BHX.3RBE 
+6100000 BLV.3RBE +14500000 BN4.3RBE +360000 BP8.3RBE -1000000 QVO13RBE -1000000 QVO23RBE -1000000 QVO33RBE -1000000 QVO43RBE >= +0 
N14.3RBE: +1200000 BAL.3RBE +11400000 BCC.3RBE -1200000 BCH.3RBE +900000 BCL.3RBE -1800000 BHH.3RBE +4900000 BHL.3RBE -1800000 BHX.3RBE 
+6800000 BLV.3RBE +14500000 BN4.3RBE +400000 BP8.3RBE -1000000 QVO13RBE -1000000 QVO23RBE -1000000 QVO33RBE -1000000 QVO43RBE >= +0 
N24.3RBE: +8000000 BAL.3RBE +10000000 BCC.3RBE +240000 BCH.3RBE +9500000 BCL.3RBE +400000 BHH.3RBE +9800000 BHL.3RBE +400000 BHX.3RBE 
+9500000 BLV.3RBE +10000000 BN4.3RBE +2850000 BP8.3RBE -5000000 QVO13RBE -5000000 QVO23RBE -5000000 QVO33RBE -5000000 QVO43RBE >= +0 
N36.3RBE: +9900000 BAL.3RBE +10000000 BCC.3RBE +9000000 BCH.3RBE +10000000 BCL.3RBE +9650000 BHH.3RBE +10000000 BHL.3RBE +9650000 BHX.3RBE 
+10000000 BLV.3RBE +10000000 BN4.3RBE +9700000 BP8.3RBE -9000000 QVO13RBE -9000000 QVO23RBE -9000000 QVO33RBE -9000000 QVO43RBE >= +0 
WMO.3EBE: +8867820 BAL.3EBE +8006283 BCC.3EBE +7469736 BCH.3EBE +7919421 BCL.3EBE +7856822 BHH.3EBE 
+8292224 BHL.3EBE +8259274 BHX.3EBE +7650646 BLV.3EBE +8835746 BN4.3EBE +9059047 BP8.3EBE -100000 WMO13EBE 
-100000 WMO23EBE -100000 WMO33EBE -100000 WMO43EBE = +0 
WRO.3EBE: +9361705 BAL.3EBE +9922401 BCC.3EBE +8380122 BCH.3EBE +9017511 BCL.3EBE +8599620 BHH.3EBE 
+8696338 BHL.3EBE +9314760 BHX.3EBE +7821025 BLV.3EBE +9425784 BN4.3EBE +10582863 BP8.3EBE -100000 WRO13EBE 
-100000 WRO23EBE -100000 WRO33EBE -100000 WRO43EBE = +0 
WMO.3PBE: +8867820 BAL.3PBE +8006283 BCC.3PBE +7469736 BCH.3PBE +7919421 BCL.3PBE +7856822 BHH.3PBE 
+8292224 BHL.3PBE +8259274 BHX.3PBE +7650646 BLV.3PBE +8835746 BN4.3PBE +9059047 BP8.3PBE -100000 WMO13PBE 
-100000 WMO23PBE -100000 WMO33PBE -100000 WMO43PBE = +0 
WRO.3PBE: +9361705 BAL.3PBE +9922401 BCC.3PBE +8380122 BCH.3PBE +9017511 BCL.3PBE +8599620 BHH.3PBE 
+8696338 BHL.3PBE +9314760 BHX.3PBE +7821025 BLV.3PBE +9425784 BN4.3PBE +10582863 BP8.3PBE -100000 WRO13PBE 
-100000 WRO23PBE -100000 WRO33PBE -100000 WRO43PBE = +0 
WMO.3RBE: +8867820 BAL.3RBE +8006283 BCC.3RBE +7469736 BCH.3RBE +7919421 BCL.3RBE +7856822 BHH.3RBE 
+8292224 BHL.3RBE +8259274 BHX.3RBE +7650646 BLV.3RBE +8835746 BN4.3RBE +9059047 BP8.3RBE -100000 WMO13RBE 
-100000 WMO23RBE -100000 WMO33RBE -100000 WMO43RBE = +0 
WRO.3RBE: +9361705 BAL.3RBE +9922401 BCC.3RBE +8380122 BCH.3RBE +9017511 BCL.3RBE +8599620 BHH.3RBE 
+8696338 BHL.3RBE +9314760 BHX.3RBE +7821025 BLV.3RBE +9425784 BN4.3RBE +10582863 BP8.3RBE -100000 WRO13RBE 
-100000 WRO23RBE -100000 WRO33RBE -100000 WRO43RBE = +0 
XRV.3EBE: +819999 BAL.3EBE +2110000 BCC.3EBE +200000 BCH.3EBE +800000 BCL.3EBE +100000 BHH.3EBE +1250000 BHL.3EBE +100000 BHX.3EBE 
+1200000 BLV.3EBE +6130000 BN4.3EBE +600000 BP8.3EBE -869999 QVO13EBE -869999 QVO23EBE -869999 QVO33EBE -869999 QVO43EBE <= +0 
X15.3EBE: +1600000 BAL.3EBE +10000000 BCC.3EBE -819999 BCH.3EBE +4300000 BCL.3EBE -1250000 BHH.3EBE +6500000 BHL.3EBE -1200000 BHX.3EBE 
+7900000 BLV.3EBE +12500000 BN4.3EBE +620000 BP8.3EBE -4700000 QVO13EBE -4700000 QVO23EBE -4700000 QVO33EBE -4700000 QVO43EBE <= +0 
XRV.3PBE: +819999 BAL.3PBE +2110000 BCC.3PBE +200000 BCH.3PBE +800000 BCL.3PBE +100000 BHH.3PBE +1250000 BHL.3PBE +100000 BHX.3PBE 
+1200000 BLV.3PBE +6130000 BN4.3PBE +600000 BP8.3PBE -869999 QVO13PBE -869999 QVO23PBE -869999 QVO33PBE -869999 QVO43PBE <= +0 
X15.3PBE: +1600000 BAL.3PBE +10000000 BCC.3PBE -819999 BCH.3PBE +4300000 BCL.3PBE -1250000 BHH.3PBE +6500000 BHL.3PBE -1200000 BHX.3PBE 
+7900000 BLV.3PBE +12500000 BN4.3PBE +620000 BP8.3PBE -4700000 QVO13PBE -4700000 QVO23PBE -4700000 QVO33PBE -4700000 QVO43PBE <= +0 
XRV.3RBE: +819999 BAL.3RBE +2110000 BCC.3RBE +200000 BCH.3RBE +800000 BCL.3RBE +100000 BHH.3RBE +1250000 BHL.3RBE +100000 BHX.3RBE 
+1200000 BLV.3RBE +6130000 BN4.3RBE +600000 BP8.3RBE -869999 QVO13RBE -869999 QVO23RBE -869999 QVO33RBE -869999 QVO43RBE <= +0 
X15.3RBE: +1600000 BAL.3RBE +10000000 BCC.3RBE -819999 BCH.3RBE +4300000 BCL.3RBE -1250000 BHH.3RBE +6500000 BHL.3RBE -1200000 BHX.3RBE 
+7900000 BLV.3RBE +12500000 BN4.3RBE +620000 BP8.3RBE -4700000 QVO13RBE -4700000 QVO23RBE -4700000 QVO33RBE -4700000 QVO43RBE <= +0 
B&,1..BE: +100000 J&,1IOBE -100000 J&,1MXBE -100000 J&,1TGBE = +0 
BAL1..BE: +100000 JAL1IOBE -100000 JAL1MXBE -100000 JAL1TGBE = +0 
BCC1..BE: +100000 JCC1IOBE -100000 JCC1MXBE -100000 JCC1TGBE = +0 
BCH1..BE: +100000 JCH1IOBE -100000 JCH1MXBE -100000 JCH1TGBE = +0 
BCL1..BE: +100000 JCL1IOBE -100000 JCL1MXBE -100000 JCL1TGBE = +0 
BHH1..BE: +100000 JHH1IOBE -100000 JHH1MXBE -100000 JHH1TGBE = +0 
BHL1..BE: +100000 JHL1IOBE -100000 JHL1MXBE -100000 JHL1TGBE = +0 
BHX1..BE: +100000 JHX1IOBE -100000 JHX1MXBE -100000 JHX1TGBE = +0 
BLV1..BE: +100000 JLV1IOBE -100000 JLV1MXBE -100000 JLV1TGBE = +0 
BN41..BE: +100000 JN41IOBE -100000 JN41MXBE -100000 JN41TGBE = +0 
BP81..BE: +100000 JP81IOBE -100000 JP81MXBE -100000 JP81TGBE = +0 
B&,2..BE: +100000 J&,1MXBE +100000 J&,1TGBE -100000 J&,2MXBE -100000 J&,2TGBE = +0 
BAL2..BE: +100000 JAL1MXBE +100000 JAL1TGBE -100000 JAL2MXBE -100000 JAL2TGBE = +0 
BCC2..BE: +100000 JCC1MXBE +100000 JCC1TGBE -100000 JCC2MXBE -100000 JCC2TGBE = +0 
BCH2..BE: +100000 JCH1MXBE +100000 JCH1TGBE -100000 JCH2MXBE -100000 JCH2TGBE = +0 
BCL2..BE: +100000 JCL1MXBE +100000 JCL1TGBE -100000 JCL2MXBE -100000 JCL2TGBE = +0 
BHH2..BE: +100000 JHH1MXBE +100000 JHH1TGBE -100000 JHH2MXBE -100000 JHH2TGBE = +0 
BHL2..BE: +100000 JHL1MXBE +100000 JHL1TGBE -100000 JHL2MXBE -100000 JHL2TGBE = +0 
BHX2..BE: +100000 JHX1MXBE +100000 JHX1TGBE -100000 JHX2MXBE -100000 JHX2TGBE = +0 
BLV2..BE: +100000 JLV1MXBE +100000 JLV1TGBE -100000 JLV2MXBE -100000 JLV2TGBE = +0 
BN42..BE: +100000 JN41MXBE +100000 JN41TGBE -100000 JN42MXBE -100000 JN42TGBE = +0 
BP82..BE: +100000 JP81MXBE +100000 JP81TGBE -100000 JP82MXBE -100000 JP82TGBE = +0 
B&,3..BE: +100000 J&,2MXBE +100000 J&,2TGBE -100000 J&,3MXBE -100000 J&,3TGBE = +0 
BAL3..BE: +100000 JAL2MXBE +100000 JAL2TGBE -100000 JAL3MXBE -100000 JAL3TGBE = +0 
BCC3..BE: +100000 JCC2MXBE +100000 JCC2TGBE -100000 JCC3MXBE -100000 JCC3TGBE = +0 
BCH3..BE: +100000 JCH2MXBE +100000 JCH2TGBE -100000 JCH3MXBE -100000 JCH3TGBE = +0 
BCL3..BE: +100000 JCL2MXBE +100000 JCL2TGBE -100000 JCL3MXBE -100000 JCL3TGBE = +0 
BHH3..BE: +100000 JHH2MXBE +100000 JHH2TGBE -100000 JHH3MXBE -100000 JHH3TGBE = +0 
BHL3..BE: +100000 JHL2MXBE +100000 JHL2TGBE -100000 JHL3MXBE -100000 JHL3TGBE = +0 
BHX3..BE: +100000 JHX2MXBE +100000 JHX2TGBE -100000 JHX3MXBE -100000 JHX3TGBE = +0 
BLV3..BE: +100000 JLV2MXBE +100000 JLV2TGBE -100000 JLV3MXBE -100000 JLV3TGBE = +0 
BN43..BE: +100000 JN42MXBE +100000 JN42TGBE -100000 JN43MXBE -100000 JN43TGBE = +0 
BP83..BE: +100000 JP82MXBE +100000 JP82TGBE -100000 JP83MXBE -100000 JP83TGBE = +0 
B&,4..BE: +100000 J&,3MXBE +100000 J&,3TGBE -100000 J&,4MXBE -100000 J&,4TGBE = +0 
BAL4..BE: +100000 JAL3MXBE +100000 JAL3TGBE -100000 JAL4MXBE -100000 JAL4TGBE = +0 
BCC4..BE: +100000 JCC3MXBE +100000 JCC3TGBE -100000 JCC4MXBE -100000 JCC4TGBE = +0 
BCH4..BE: +100000 JCH3MXBE +100000 JCH3TGBE -100000 JCH4MXBE -100000 JCH4TGBE = +0 
BCL4..BE: +100000 JCL3MXBE +100000 JCL3TGBE -100000 JCL4MXBE -100000 JCL4TGBE = +0 
BHH4..BE: +100000 JHH3MXBE +100000 JHH3TGBE -100000 JHH4MXBE -100000 JHH4TGBE = +0 
BHL4..BE: +100000 JHL3MXBE +100000 JHL3TGBE -100000 JHL4MXBE -100000 JHL4TGBE = +0 
BHX4..BE: +100000 JHX3MXBE +100000 JHX3TGBE -100000 JHX4MXBE -100000 JHX4TGBE = +0 
BLV4..BE: +100000 JLV3MXBE +100000 JLV3TGBE -100000 JLV4MXBE -100000 JLV4TGBE = +0 
BN44..BE: +100000 JN43MXBE +100000 JN43TGBE -100000 JN44MXBE -100000 JN44TGBE = +0 
BP84..BE: +100000 JP83MXBE +100000 JP83TGBE -100000 JP84MXBE -100000 JP84TGBE = +0 
Bounds 
+0 <= J&,1IOBE <= +0 
+0 <= JAL1IOBE <= +9200000 
+0 <= JCC1IOBE <= +3900000 
+0 <= JCH1IOBE <= +8700000 
+0 <= JCL1IOBE <= +2900000 
+0 <= JHH1IOBE <= +0 
+0 <= JHL1IOBE <= +2000000 
+0 <= JHX1IOBE <= +0 
+0 <= JLV1IOBE <= +2800000 
+0 <= JN41IOBE <= +2000000 
+0 <= JP81IOBE <= +7100000 
+0 <= JAL1MXBE <= +13000000 
+0 <= JCC1MXBE <= +4500000 
+0 <= JCH1MXBE <= +5300000 
+0 <= JCL1MXBE <= +5500000 
+0 <= JHH1MXBE <= +7500000 
+0 <= JHL1MXBE <= +11200000 
+0 <= JHX1MXBE <= +0 
+0 <= JLV1MXBE <= +7300000 
+0 <= JN41MXBE <= +48000000 
+0 <= JP81MXBE <= +15400000 
+0 <= J&,1TGBE <= +12100000 
+1000000 <= JAL1TGBE <= +5000000 
+500000 <= JCC1TGBE <= +3000000 
+1000000 <= JCH1TGBE <= +7700000 
+500000 <= JCL1TGBE <= +2000000 
+0 <= JHH1TGBE <= +0 
+1000000 <= JHL1TGBE <= +1800000 
+0 <= JHX1TGBE <= +0 
+200000 <= JLV1TGBE <= +500000 
+0 <= JN41TGBE <= +2000000 
+1000000 <= JP81TGBE <= +7100000 
+0 <= JAL2MXBE <= +13000000 
+0 <= JCC2MXBE <= +5500000 
+0 <= JCH2MXBE <= +9300000 
+0 <= JCL2MXBE <= +6000000 
+0 <= JHH2MXBE <= +7500000 
+0 <= JHL2MXBE <= +11500000 
+0 <= JHX2MXBE <= +0 
+0 <= JLV2MXBE <= +6700000 
+0 <= JN42MXBE <= +48000000 
+0 <= JP82MXBE <= +15400000 
+0 <= J&,2TGBE <= +12100000 
+1000000 <= JAL2TGBE <= +5000000 
+500000 <= JCC2TGBE <= +2000000 
+1000000 <= JCH2TGBE <= +3700000 
+500000 <= JCL2TGBE <= +1500000 
+0 <= JHH2TGBE <= +0 
+1000000 <= JHL2TGBE <= +1500000 
+0 <= JHX2TGBE <= +0 
+500000 <= JLV2TGBE <= +800000 
+0 <= JN42TGBE <= +2000000 
+1000000 <= JP82TGBE <= +7100000 
+0 <= JAL3MXBE <= +13000000 
+0 <= JCC3MXBE <= +5500000 
+0 <= JCH3MXBE <= +9300000 
+0 <= JCL3MXBE <= +6000000 
+0 <= JHH3MXBE <= +7500000 
+0 <= JHL3MXBE <= +10500000 
+0 <= JHX3MXBE <= +0 
+0 <= JLV3MXBE <= +6700000 
+0 <= JN43MXBE <= +498000000 
+0 <= JP83MXBE <= +15400000 
+0 <= J&,3TGBE <= +11000000 
+1000000 <= JAL3TGBE <= +5000000 
+500000 <= JCC3TGBE <= +2000000 
+1000000 <= JCH3TGBE <= +3700000 
+500000 <= JCL3TGBE <= +1500000 
+0 <= JHH3TGBE <= +0 
+1000000 <= JHL3TGBE <= +2500000 
+0 <= JHX3TGBE <= +0 
+500000 <= JLV3TGBE <= +800000 
+0 <= JN43TGBE <= +2000000 
+1000000 <= JP83TGBE <= +7100000 
+0 <= JAL4MXBE <= +2000000 
+0 <= JCC4MXBE <= +2000000 
+0 <= JCH4MXBE <= +2000000 
+0 <= JCL4MXBE <= +2000000 
+0 <= JHH4MXBE <= +0 
+0 <= JHL4MXBE <= +2000000 
+0 <= JHX4MXBE <= +0 
+0 <= JLV4MXBE <= +2000000 
+0 <= JN44MXBE <= +0 
+0 <= JP84MXBE <= +2000000 
+0 <= J&,4TGBE <= +0 
+0 <= JAL4TGBE <= +0 
+0 <= JCC4TGBE <= +0 
+0 <= JCH4TGBE <= +0 
+0 <= JCL4TGBE <= +0 
+0 <= JHH4TGBE <= +0 
+0 <= JHL4TGBE <= +0 
+0 <= JHX4TGBE <= +0 
+0 <= JLV4TGBE <= +0 
+0 <= JN44TGBE <= +0 
+0 <= JP84TGBE <= +0 
End 

